1733.70
0 22 148 134 144 82 3 162 103 145 107 59 99 32 71 76 39 8 110 35 23 72 62 120 15 139 106 5 160 149 147 112 125 1 80 83 164 67 140 54 49 119 11 117 159 65 128 21 167 172 78 168 123 170 141 69 121 102 9 45 47 138 111 7 85 53 150 91 132 127 156 73 18 165 89 60 46 143 136 33 24 13 171 155 146 133 58 57 52 114 152 122 38 61 17 169 84 161 30 130 97 151 27 43 105 14 64 118 94 20 16 26 29 88 40 77 109 124 95 158 19 101 90 34 166 116 108 113 75 104 50 173 100 74 10 137 44 154 41 126 86 42 31 157 174 28 66 51 25 81 98 55 131 2 37 12 93 96 48 153 4 6 56 163 115 79 63 36 92 135 87 129 142 68 70
